benchmarks/loan_acquisition_new/nBench5/run1/mmc_encoding/encoding.dimacs.0.log
ApproxMC:1:0:0:0.01:1:74
ApproxMC:1:0:1:0.01:1:74
ApproxMC:1:0:2:0.02:1:74
ApproxMC:1:0:4:0.02:1:74
ApproxMC:1:0:8:0.10:1:74
ApproxMC:1:0:16:1.06:1:74
ApproxMC:1:0:32:0.03:0:0
ApproxMC:1:0:24:0.13:0:1
ApproxMC:1:0:20:0.41:0:5
ApproxMC:1:0:18:0.65:0:20
ApproxMC:1:0:17:0.65:0:42
UniGen2:1:16:0.87:1:71
UniGen2:1:17:1.91:0:42
UniGen2:2:17:2.18:0:40
UniGen2:3:17:2.66:0:34
UniGen2:4:17:3.01:0:30
UniGen2:5:17:3.26:0:22
UniGen2:6:17:3.84:0:39
UniGen2:7:17:4.07:0:27
UniGen2:8:17:4.31:0:45
UniGen2:9:17:4.90:0:26
UniGen2:10:17:5.26:0:33
UniGen2:11:17:5.48:0:44
UniGen2:12:17:6.34:0:38
UniGen2:13:17:6.67:0:42
UniGen2:14:17:6.97:0:37
UniGen2:15:17:7.56:0:44
UniGen2:16:17:7.90:0:35
UniGen2:17:17:8.13:0:44
UniGen2:18:17:8.68:0:36
UniGen2:19:17:9.04:0:28
UniGen2:20:17:9.31:0:33
